DIMENSION: 7
EDGE_WEIGHT_TYPE: EXPLICIT
EDGE_WEIGHT_FORMAT: FULL_MATRIX
EDGE_WEIGHT_SECTION:
32767 32767 32767 60 69 43 4 
32767 32767 32767 50 32767 32767 32767 
32767 32767 32767 28 32767 69 32767 
60 50 28 32767 58 32767 32767 
69 32767 32767 58 32767 32767 32767 
43 32767 69 32767 32767 32767 20 
4 32767 32767 32767 32767 20 32767 
EOF